9 22
1 2 1
1 3 1
1 4 1
1 5 0
1 6 0
1 7 1
1 8 1
1 9 1
2 3 1
2 4 1
2 5 1
2 6 1
2 7 0
2 8 1
2 9 0
3 4 0
3 5 0
3 6 1
3 7 1
3 8 1
3 9 0
4 5 1
4 6 0
4 7 1
4 8 1
4 9 1
5 6 1
5 7 1
5 8 0
5 9 0
6 7 0
6 8 1
6 9 1
7 8 0
7 9 0
8 9 0
